 &PROJWFC
   outdir = './',
   prefix = 'fe',
   Emin = 13.0,
   Emax = 23.0,
   degauss = 0.01,
   deltaE = 0.02,
   filpdos = 'PDOS/Fe'
 /
