Fe QE-in

 &DOS
   outdir = './',
   prefix = 'fe',
   Emin = 13.0,
   Emax = 23.0,
   fildos='Fe-dos.dat',
   DeltaE=0.1,
 /
