 &PROJWFC
   outdir = './',
   prefix = 'nio',
   Emin = 5.0,
   Emax = 19.0,
   degauss = 0.01,
   deltaE = 0.02,
   filpdos = 'PDOS/nio'
 /
