Ag QE-in

 &BANDS
    prefix = 'ag',
    filband = 'Ag-bands.dat'
 /
