 &INPUT
    fildyn='NaCl.dyn',
    zasr='simple',
    flfrc='NaCl333.fc'
 /
