Ag QE-in

 &DOS
   outdir = './',
   prefix = 'ag',
   fildos='Ag-dos.dat',
   DeltaE=0.1,
 /
