LiC6 QE-in

 &CONTROL
    calculation = 'scf',
    restart_mode ='from_scratch',
    prefix = 'li',
    outdir = './',
    verbosity = 'high',
  /

 &SYSTEM
    ibrav =  0,
    celldm(1) = 8.05023329064716406174,
    nat =  1,
    ntyp = 1,
    ecutwfc = 30,
    ecutrho = 360,
    occupations = 'smearing',
    smearing = 'methfessel-paxton',
    degauss = 0.01,
 /

 &ELECTRONS
    mixing_beta = 0.7,
    conv_thr =  1.0d-10,
 /

 ATOMIC_SPECIES
    Li  6.941     li_pbe_v1.4.uspp.F.UPF

 ATOMIC_POSITIONS {crystal}
    Li 0.500000000 0.500000000 0.588047290

CELL_PARAMETERS {alat}
    1.00000000 0.00000000 0.00000000
   -0.50000000 0.86602540 0.00000000
    0.00000000 0.00000000 5.00000000

 K_POINTS {automatic}
    10 10 1 0 0 0
