 &INPUTPP
     prefix = 'li'
     outdir = './.'
     filplot = 'Li.charge'
     plot_num= 0
 /
